c   #vars: 119   #clauses: 554   #literals: 1516
c 
p cnf 119 554
-1 -2 0
-3 -4 0
-5 -6 0
3 4 26 -111 0
-8 -9 0
-10 -11 0
-12 -13 0
-14 -15 0
-16 -17 0
-18 -19 0
-20 -21 0
-22 -23 0
-24 -25 0
33 -66 74 75 0
-27 -28 0
-29 -30 0
-31 -32 0
1 2 118 119 0
1 2 38 -113 0
-34 -35 0
-36 -37 0
20 21 -26 43 0
-39 -40 0
-41 -42 0
18 19 96 97 0
46 47 -50 63 0
-44 -45 0
-46 -47 0
-48 -49 0
-50 -51 0
-52 -53 0
7 -31 104 105 0
74 75 -86 117 0
-56 -57 0
-58 -59 0
-60 -61 0
38 88 89 -113 0
58 59 84 85 0
20 21 -80 110 0
-64 -65 0
-66 -67 0
-68 -69 0
-70 -71 0
-72 -73 0
-74 -75 0
-76 -77 0
-78 -79 0
-80 -81 0
-82 -83 0
-84 -85 0
-86 -87 0
-88 -89 0
-90 -91 0
7 31 32 -104 0
-92 -93 0
26 -43 111 112 0
82 83 115 116 0
-94 -95 0
34 35 118 119 0
60 61 72 73 0
20 21 106 107 0
-96 -97 0
-98 -99 0
-100 -101 0
-102 -103 0
20 21 70 71 0
-104 -105 0
-106 -107 0
-108 -109 0
-111 -112 0
-113 -114 0
-115 -116 0
18 19 80 81 0
-118 -119 0
82 83 102 103 0
-1 -5 0
-2 -6 0
-15 20 21 43 0
-2 -38 0
-1 -39 0
-2 -40 0
33 60 61 -74 0
-1 -52 0
-2 -53 0
44 45 118 119 0
-1 -106 0
-2 -107 0
-8 55 70 71 0
-1 -118 0
-2 -119 0
10 11 76 77 0
-3 -18 0
-4 -19 0
80 81 98 99 0
33 -60 74 75 0
-4 -26 0
7 -72 104 105 0
-4 -54 0
10 11 34 35 0
-3 -70 0
-4 -71 0
10 11 96 97 0
-3 -88 0
-4 -89 0
10 11 29 30 0
-3 -118 0
-4 -119 0
5 6 39 40 0
-5 -39 0
-6 -40 0
56 57 94 95 0
-5 -56 0
-6 -57 0
16 17 64 65 0
-5 -74 0
-6 -75 0
10 11 31 32 0
-5 -88 0
-6 -89 0
48 49 118 119 0
3 4 26 -43 0
-7 -32 0
22 23 115 116 0
20 21 -46 63 0
-7 -73 0
36 37 102 103 0
20 21 -50 63 0
-7 -105 0
-8 -41 0
-9 -42 0
39 40 44 45 0
-8 -50 0
-9 -51 0
-22 117 118 119 0
-22 74 75 117 0
-9 -55 0
24 25 46 47 0
-8 -104 0
-9 -105 0
8 9 50 51 0
-10 -29 0
-11 -30 0
12 13 98 99 0
-10 -31 0
-11 -32 0
29 30 41 42 0
-10 -34 0
-11 -35 0
12 13 76 77 0
-10 -36 0
-11 -37 0
48 49 78 79 0
-10 -76 0
-11 -77 0
27 28 106 107 0
-10 -96 0
-11 -97 0
18 19 24 25 0
-12 -14 0
-13 -15 0
-12 -27 0
-13 -28 0
34 35 46 47 0
-12 -44 0
-13 -45 0
24 25 92 93 0
-12 -68 0
-13 -69 0
14 15 78 79 0
-12 -76 0
-13 -77 0
92 93 100 101 0
-12 -98 0
-13 -99 0
39 40 48 49 0
-14 -43 0
-20 46 47 63 0
46 47 102 103 0
-14 -78 0
-15 -79 0
24 25 60 61 0
-14 -100 0
-15 -101 0
34 35 66 67 0
-16 -18 0
-17 -19 0
-16 -44 0
-17 -45 0
3 4 18 19 0
-16 -46 0
-17 -47 0
60 61 88 89 0
-16 -58 0
-17 -59 0
12 13 14 15 0
-16 -64 0
-17 -65 0
10 11 36 37 0
-18 -24 0
-19 -25 0
60 61 74 75 0
-18 -58 0
-19 -59 0
31 32 111 112 0
-18 -60 0
-19 -61 0
80 81 84 85 0
-18 -80 0
-19 -81 0
72 73 84 85 0
-18 -96 0
-19 -97 0
41 42 113 114 0
-18 -100 0
-19 -101 0
72 73 94 95 0
-20 -43 0
-46 50 51 63 0
62 -64 84 85 0
20 21 -29 110 0
-21 -63 0
52 53 74 75 0
-20 -70 0
-21 -71 0
22 23 70 71 0
108 109 111 112 0
-20 -106 0
-21 -107 0
80 81 90 91 0
-20 -108 0
-21 -109 0
31 32 100 101 0
-21 -110 0
22 23 39 40 0
-22 -39 0
-23 -40 0
36 37 74 75 0
-22 -70 0
-23 -71 0
1 2 39 40 0
-22 -82 0
-23 -83 0
39 40 113 114 0
-22 -102 0
-23 -103 0
39 40 94 95 0
-22 -111 0
-23 -112 0
-22 -115 0
-23 -116 0
1 2 5 6 0
-23 -117 0
-24 -46 0
-25 -47 0
36 37 44 45 0
-24 -56 0
-25 -57 0
-24 -60 0
-25 -61 0
-24 -80 0
-25 -81 0
-24 -92 0
-25 -93 0
12 13 27 28 0
33 66 67 -74 0
-20 50 51 63 0
52 53 64 65 0
33 -60 66 67 0
-26 -112 0
-27 -98 0
-28 -99 0
64 65 98 99 0
-27 -106 0
-28 -107 0
12 13 44 45 0
-27 -118 0
-28 -119 0
-86 117 118 119 0
-29 -41 0
-30 -42 0
64 65 76 77 0
-29 -104 0
-30 -105 0
-1 38 88 89 0
-30 -110 0
16 17 58 59 0
-31 -48 0
-32 -49 0
-34 54 90 91 0
-31 -50 0
-32 -51 0
3 4 70 71 0
-31 -68 0
-32 -69 0
66 67 98 99 0
-31 -94 0
-32 -95 0
96 97 113 114 0
-31 -100 0
-32 -101 0
-31 -111 0
-32 -112 0
-22 86 87 117 0
74 75 117 -118 0
41 42 115 116 0
1 2 38 -88 0
-33 -61 0
8 9 104 105 0
38 -88 113 114 0
-33 -67 0
-1 38 113 114 0
-33 -75 0
8 9 41 42 0
-34 -46 0
-35 -47 0
22 23 117 -118 0
7 -31 72 73 0
-35 -54 0
50 51 96 97 0
-34 -66 0
-35 -67 0
16 17 18 19 0
-34 -118 0
-35 -119 0
16 17 46 47 0
-36 -44 0
-37 -45 0
1 2 52 53 0
-36 -68 0
-37 -69 0
52 53 90 91 0
-36 -74 0
-37 -75 0
7 31 32 -72 0
29 30 -80 110 0
52 53 108 109 0
-36 -102 0
-37 -103 0
14 15 -26 43 0
-38 -89 0
82 83 108 109 0
14 15 -21 43 0
-38 -114 0
-39 -44 0
-40 -45 0
22 23 -86 117 0
-39 -48 0
-40 -49 0
27 28 98 99 0
-39 -94 0
-40 -95 0
113 114 115 116 0
-39 -113 0
-40 -114 0
16 17 44 45 0
-41 -104 0
-42 -105 0
18 19 100 101 0
-41 -113 0
-42 -114 0
24 25 56 57 0
-41 -115 0
-42 -116 0
60 61 102 103 0
8 9 55 -70 0
5 6 88 89 0
8 9 55 -58 0
-74 117 118 119 0
-44 -118 0
-45 -119 0
72 73 88 89 0
-47 -63 0
18 19 58 59 0
-46 -102 0
-47 -103 0
-49 -62 0
56 57 86 87 0
-48 -78 0
-49 -79 0
-3 -15 26 43 0
-48 -118 0
-49 -119 0
-51 -63 0
-50 -96 0
-51 -97 0
36 37 68 69 0
-52 -64 0
-53 -65 0
12 13 68 69 0
-52 -74 0
-53 -75 0
66 67 68 69 0
-52 -84 0
-53 -85 0
76 77 92 93 0
-52 -90 0
-53 -91 0
68 69 72 73 0
-52 -108 0
-53 -109 0
27 28 118 119 0
34 35 54 -90 0
55 58 59 -70 0
-54 -91 0
86 87 117 -118 0
-55 -59 0
-48 62 84 85 0
-74 86 87 117 0
-55 -71 0
-56 -86 0
-57 -87 0
78 79 84 85 0
7 72 73 -104 0
-20 29 30 110 0
-56 -94 0
-57 -95 0
20 21 108 109 0
-56 -104 0
-57 -105 0
86 87 102 103 0
-56 -106 0
-57 -107 0
33 60 61 -66 0
-58 -84 0
-59 -85 0
22 23 102 103 0
-58 -92 0
-59 -93 0
60 61 64 65 0
-60 -64 0
-61 -65 0
-60 -72 0
-61 -73 0
24 25 80 81 0
-60 -74 0
-61 -75 0
70 71 104 105 0
-60 -88 0
-61 -89 0
64 65 111 112 0
-60 -102 0
-61 -103 0
-21 26 43 -111 0
-62 -65 0
31 32 94 95 0
-20 80 81 110 0
-62 -85 0
68 69 82 83 0
48 49 62 -84 0
5 6 74 75 0
-3 34 35 54 0
31 32 50 51 0
-64 -76 0
-65 -77 0
14 15 100 101 0
-64 -98 0
-65 -99 0
3 4 118 119 0
-64 -111 0
-65 -112 0
5 6 56 57 0
55 -58 70 71 0
-66 -68 0
-67 -69 0
31 32 68 69 0
-66 -98 0
-67 -99 0
70 71 90 91 0
-68 -72 0
-69 -73 0
22 23 -74 117 0
-68 -82 0
-69 -83 0
58 59 92 93 0
-70 -90 0
-71 -91 0
-70 -104 0
-71 -105 0
3 4 88 89 0
-72 -84 0
-73 -85 0
41 42 104 105 0
-72 -88 0
-73 -89 0
88 89 102 103 0
-72 -94 0
-73 -95 0
22 23 82 83 0
-72 -111 0
-73 -112 0
1 2 106 107 0
-75 -117 0
76 77 82 83 0
-76 -82 0
-77 -83 0
-76 -92 0
-77 -93 0
78 79 86 87 0
-78 -84 0
-79 -85 0
-3 54 90 91 0
-78 -86 0
-79 -87 0
56 57 106 107 0
-78 -94 0
-79 -95 0
52 53 84 85 0
-80 -84 0
-81 -85 0
62 64 65 -84 0
-80 -90 0
-81 -91 0
-80 -98 0
-81 -99 0
-3 26 111 112 0
-81 -110 0
22 23 111 112 0
72 73 111 112 0
-82 -102 0
-83 -103 0
56 57 104 105 0
-82 -108 0
-83 -109 0
-8 55 58 59 0
-82 -115 0
-83 -116 0
-86 -102 0
-87 -103 0
-87 -117 0
29 30 104 105 0
-88 -102 0
-89 -103 0
-48 62 64 65 0
18 19 60 61 0
48 49 62 -64 0
-29 80 81 110 0
78 79 94 95 0
-92 -100 0
-93 -101 0
3 4 -34 54 0
-96 -113 0
-97 -114 0
-15 26 43 -111 0
-100 -115 0
-101 -116 0
31 32 48 49 0
-108 -111 0
-109 -112 0
100 101 115 116 0
-113 -115 0
-114 -116 0
-3 -21 26 43 0
3 4 54 -90 0
-117 -119 0
